\ENCODING=ISO-8859-1
\Problem name: lp1.lp

Maximize
 obj: x41
Subject To
 c1:  59 x1 + 60 x2 + 66 x3 + 67 x4 + 68 x5 + 70 x6 + 76 x7 + 89 x8 + 95 x9
      + 102 x10 + 108 x11 + 110 x12 + 114 x13 + 121 x14 + 125 x15 + 139 x16
      + 141 x17 + 141 x18 + 144 x19 + 152 x20 + 154 x21 + 155 x22 + 156 x23
      + 187 x24 + 193 x25 + 194 x26 + 196 x27 + 196 x28 + 198 x29 + 227 x30
      + 228 x31 + 234 x32 + 235 x33 + 242 x34 + 244 x35 + 266 x36 + 274 x37
      + 275 x38 + 281 x39 + 289 x40 + x42  = 44
 c2:  277 x1 + 279 x2 + 238 x3 + 240 x4 + 232 x5 + 267 x6 + 240 x7 + 193 x8
      + 261 x9 + 181 x10 + 215 x11 + 164 x12 + 157 x13 + 167 x14 + 187 x15
      + 216 x16 + 135 x17 + 309 x18 + 133 x19 + 173 x20 + 208 x21 + 136 x22
      + 175 x23 + 231 x24 + 119 x25 + 171 x26 + 109 x27 + 138 x28 + 230 x29
      + 194 x30 + 136 x31 + 121 x32 + 195 x33 + 132 x34 + 250 x35 + 119 x36
      + 130 x37 + 104 x38 + 189 x39 + 114 x40 + x43  = 229
 c3:  248 x1 + 224 x2 + 213 x3 + 189 x4 + 257 x5 + 167 x6 + 138 x7 + 224 x8
      + 109 x9 + 169 x10 + 123 x11 + 207 x12 + 246 x13 + 144 x14 + 124 x15
      + 99 x16 + 274 x17 + 67 x18 + 230 x19 + 108 x20 + 93 x21 + 167 x22
      + 104 x23 + 68 x24 + 208 x25 + 85 x26 + 261 x27 + 96 x28 + 63 x29
      + 60 x30 + 87 x31 + 137 x32 + 58 x33 + 91 x34 + 51 x35 + 128 x36 + 82 x37
      + 202 x38 + 53 x39 + 146 x40 + x44  = 239
 c4:  x1 + x2 + x3 + x4 + x5 + x6 + x7 + x8 + x9 + x10 + x11 + x12 + x13 + x14
      + x15 + x16 + x17 + x18 + x19 + x20 + x21 + x22 + x23 + x24 + x25 + x26
      + x27 + x28 + x29 + x30 + x31 + x32 + x33 + x34 + x35 + x36 + x37 + x38
      + x39 + x40  = 1
 c5:  - x1 + x41 <= 0
 c6:  - x2 + x41 <= 0
 c7:  - x3 + x41 <= 0
 c8:  - x4 + x41 <= 0
 c9:  - x5 + x41 <= 0
 c10: - x6 + x41 <= 0
 c11: - x7 + x41 <= 0
 c12: - x8 + x41 <= 0
 c13: - x9 + x41 <= 0
 c14: - x10 + x41 <= 0
 c15: - x11 + x41 <= 0
 c16: - x12 + x41 <= 0
 c17: - x13 + x41 <= 0
 c18: - x14 + x41 <= 0
 c19: - x15 + x41 <= 0
 c20: - x16 + x41 <= 0
 c21: - x17 + x41 <= 0
 c22: - x18 + x41 <= 0
 c23: - x19 + x41 <= 0
 c24: - x20 + x41 <= 0
 c25: - x21 + x41 <= 0
 c26: - x22 + x41 <= 0
 c27: - x23 + x41 <= 0
 c28: - x24 + x41 <= 0
 c29: - x25 + x41 <= 0
 c30: - x26 + x41 <= 0
 c31: - x27 + x41 <= 0
 c32: - x28 + x41 <= 0
 c33: - x29 + x41 <= 0
 c34: - x30 + x41 <= 0
 c35: - x31 + x41 <= 0
 c36: - x32 + x41 <= 0
 c37: - x33 + x41 <= 0
 c38: - x34 + x41 <= 0
 c39: - x35 + x41 <= 0
 c40: - x36 + x41 <= 0
 c41: - x37 + x41 <= 0
 c42: - x38 + x41 <= 0
 c43: - x39 + x41 <= 0
 c44: - x40 + x41 <= 0
Bounds
      x1 Free
      x2 Free
      x3 Free
      x4 Free
      x5 Free
      x6 Free
      x7 Free
      x8 Free
      x9 Free
      x10 Free
      x11 Free
      x12 Free
      x13 Free
      x14 Free
      x15 Free
      x16 Free
      x17 Free
      x18 Free
      x19 Free
      x20 Free
      x21 Free
      x22 Free
      x23 Free
      x24 Free
      x25 Free
      x26 Free
      x27 Free
      x28 Free
      x29 Free
      x30 Free
      x31 Free
      x32 Free
      x33 Free
      x34 Free
      x35 Free
      x36 Free
      x37 Free
      x38 Free
      x39 Free
      x40 Free
      x41 Free
      x42 Free
      x43 Free
      x44 Free
End
